(set-logic QF_NRA)
(set-info :source |Benchmarks generated from hycomp (https://es-static.fbk.eu/tools/hycomp/). BMC instances of non-linear hybrid automata taken from: Alessandro Cimatti, Sergio Mover, Stefano Tonetta, A quantifier-free SMT encoding of non-linear hybrid automata, FMCAD 2012 and Alessandro Cimatti, Sergio Mover, Stefano Tonetta, Quantier-free encoding of invariants for Hybrid Systems, Formal Methods in System Design. This instance solves a BMC problem of depth 1 and uses the quantifier free encoding with lemmas encoding. Contacts: Sergio Mover (mover@fbk.eu), Stefano Tonetta (tonettas@fbk.eu), Alessandro Cimatti (cimatti@fbk.eu).|)
(set-info :smt-lib-version 2.0)
(set-info :category "industrial")
(set-info :status unsat)
;; MathSAT API call trace
;; generated on Mon Mar 19 10:47:35 2012
(declare-fun b.y__AT1 () Real)
(declare-fun b.x__AT0 () Real)
(declare-fun b.speed_y__AT0 () Real)
(declare-fun b.event_is_timed__AT0 () Bool)
(declare-fun b.speed_x__AT0 () Real)
(declare-fun b.event_is_timed__AT1 () Bool)
(declare-fun b.time__AT0 () Real)
(declare-fun b.speed_y__AT1 () Real)
(declare-fun b.y__AT0 () Real)
(declare-fun b.counter.0__AT0 () Bool)
(declare-fun b.counter.1__AT0 () Bool)
(declare-fun b.time__AT1 () Real)
(declare-fun b.bool_atom__AT0 () Bool)
(declare-fun b.counter.2__AT0 () Bool)
(declare-fun b.delta__AT1 () Real)
(declare-fun b.EVENT.0__AT1 () Bool)
(declare-fun b.delta__AT0 () Real)
(declare-fun b.speed_x__AT1 () Real)
(declare-fun b.EVENT.0__AT0 () Bool)
(declare-fun b.x__AT1 () Real)
(declare-fun b.counter.0__AT1 () Bool)
(declare-fun b.EVENT.1__AT0 () Bool)
(declare-fun b.counter.1__AT1 () Bool)
(declare-fun b.counter.2__AT1 () Bool)
(declare-fun b.counter.3__AT1 () Bool)
(declare-fun b.bool_atom__AT1 () Bool)
(declare-fun b.EVENT.1__AT1 () Bool)
(declare-fun b.speed_loss__AT0 () Real)
(declare-fun b.counter.3__AT0 () Bool)
(assert (let ((.def_416 (* (- 1.0) b.speed_x__AT1)))
(let ((.def_417 (* b.speed_x__AT1 .def_416)))
(let ((.def_418 (* (- 1.0) .def_417)))
(let ((.def_446 (* 2.0 .def_418)))
(let ((.def_504 (* (- 1.0) .def_446)))
(let ((.def_505 (* b.delta__AT1 .def_504)))
(let ((.def_506 (* (- 5.0) .def_505)))
(let ((.def_349 (* (- 1.0) b.x__AT1)))
(let ((.def_429 (* b.speed_x__AT1 .def_349)))
(let ((.def_451 (* (- 5.0) .def_429)))
(let ((.def_511 (+ .def_451 .def_506)))
(let ((.def_424 (* b.x__AT1 .def_416)))
(let ((.def_449 (* (- 5.0) .def_424)))
(let ((.def_512 (+ .def_449 .def_511)))
(let ((.def_453 (* (- 49.0) b.delta__AT1)))
(let ((.def_513 (+ .def_453 .def_512)))
(let ((.def_455 (* 5.0 b.speed_y__AT1)))
(let ((.def_514 (+ .def_455 .def_513)))
(let ((.def_517 (<= 0.0 .def_514)))
(let ((.def_524 (not .def_517)))
(let ((.def_430 (* (- 1.0) .def_429)))
(let ((.def_425 (* (- 1.0) .def_424)))
(let ((.def_463 (+ .def_425 .def_430)))
(let ((.def_464 (+ b.speed_y__AT1 .def_463)))
(let ((.def_465 (<= 0.0 .def_464)))
(let ((.def_525 (or .def_465 .def_524)))
(let ((.def_515 (<= .def_514 0.0 )))
(let ((.def_479 (<= .def_464 0.0 )))
(let ((.def_480 (not .def_479)))
(let ((.def_523 (or .def_480 .def_515)))
(let ((.def_526 (and .def_523 .def_525)))
(let ((.def_495 (<= .def_417 (- (/ 49 10)))))
(let ((.def_527 (or .def_495 .def_526)))
(let ((.def_519 (not .def_515)))
(let ((.def_520 (or .def_479 .def_519)))
(let ((.def_466 (not .def_465)))
(let ((.def_518 (or .def_466 .def_517)))
(let ((.def_521 (and .def_518 .def_520)))
(let ((.def_500 (<= (- (/ 49 10)) .def_417)))
(let ((.def_522 (or .def_500 .def_521)))
(let ((.def_528 (and .def_522 .def_527)))
(let ((.def_516 (and .def_479 .def_515)))
(let ((.def_529 (and .def_516 .def_528)))
(let ((.def_447 (* b.delta__AT1 .def_446)))
(let ((.def_448 (* 5.0 .def_447)))
(let ((.def_457 (+ .def_451 .def_448)))
(let ((.def_458 (+ .def_449 .def_457)))
(let ((.def_459 (+ .def_453 .def_458)))
(let ((.def_460 (+ .def_455 .def_459)))
(let ((.def_477 (<= .def_460 0.0 )))
(let ((.def_478 (not .def_477)))
(let ((.def_498 (or .def_478 .def_479)))
(let ((.def_461 (<= 0.0 .def_460)))
(let ((.def_497 (or .def_461 .def_466)))
(let ((.def_499 (and .def_497 .def_498)))
(let ((.def_501 (or .def_499 .def_500)))
(let ((.def_462 (not .def_461)))
(let ((.def_493 (or .def_462 .def_465)))
(let ((.def_492 (or .def_477 .def_480)))
(let ((.def_494 (and .def_492 .def_493)))
(let ((.def_496 (or .def_494 .def_495)))
(let ((.def_502 (and .def_496 .def_501)))
(let ((.def_491 (and .def_461 .def_465)))
(let ((.def_503 (and .def_491 .def_502)))
(let ((.def_530 (or .def_503 .def_529)))
(let ((.def_431 (* b.delta__AT1 .def_430)))
(let ((.def_432 (* 10.0 .def_431)))
(let ((.def_426 (* b.delta__AT1 .def_425)))
(let ((.def_427 (* 10.0 .def_426)))
(let ((.def_438 (+ .def_427 .def_432)))
(let ((.def_415 (* b.delta__AT1 b.delta__AT1)))
(let ((.def_419 (* .def_415 .def_418)))
(let ((.def_420 (* 10.0 .def_419)))
(let ((.def_439 (+ .def_420 .def_438)))
(let ((.def_422 (* (- 49.0) .def_415)))
(let ((.def_440 (+ .def_422 .def_439)))
(let ((.def_413 (* b.speed_y__AT1 b.delta__AT1)))
(let ((.def_414 (* 10.0 .def_413)))
(let ((.def_441 (+ .def_414 .def_440)))
(let ((.def_395 (* b.x__AT1 .def_349)))
(let ((.def_434 (* (- 10.0) .def_395)))
(let ((.def_442 (+ .def_434 .def_441)))
(let ((.def_436 (* 10.0 b.y__AT1)))
(let ((.def_443 (+ .def_436 .def_442)))
(let ((.def_471 (<= .def_443 0.0 )))
(let ((.def_485 (not .def_471)))
(let ((.def_469 (<= b.y__AT1 .def_395)))
(let ((.def_486 (or .def_469 .def_485)))
(let ((.def_396 (<= .def_395 b.y__AT1)))
(let ((.def_483 (not .def_396)))
(let ((.def_444 (<= 0.0 .def_443)))
(let ((.def_484 (or .def_444 .def_483)))
(let ((.def_487 (and .def_484 .def_486)))
(let ((.def_481 (or .def_478 .def_480)))
(let ((.def_482 (not .def_481)))
(let ((.def_488 (or .def_482 .def_487)))
(let ((.def_473 (not .def_444)))
(let ((.def_474 (or .def_396 .def_473)))
(let ((.def_470 (not .def_469)))
(let ((.def_472 (or .def_470 .def_471)))
(let ((.def_475 (and .def_472 .def_474)))
(let ((.def_467 (or .def_462 .def_466)))
(let ((.def_468 (not .def_467)))
(let ((.def_476 (or .def_468 .def_475)))
(let ((.def_489 (and .def_476 .def_488)))
(let ((.def_445 (and .def_396 .def_444)))
(let ((.def_490 (and .def_445 .def_489)))
(let ((.def_531 (and .def_490 .def_530)))
(let ((.def_76 (<= b.speed_loss__AT0 (/ 1 2))))
(let ((.def_73 (<= (/ 1 10) b.speed_loss__AT0)))
(let ((.def_77 (and .def_73 .def_76)))
(let ((.def_532 (and .def_77 .def_531)))
(let ((.def_45 (not b.counter.0__AT0)))
(let ((.def_405 (or b.counter.1__AT0 .def_45)))
(let ((.def_406 (or b.counter.2__AT0 .def_405)))
(let ((.def_48 (not b.counter.2__AT0)))
(let ((.def_43 (not b.counter.1__AT0)))
(let ((.def_46 (and .def_43 .def_45)))
(let ((.def_404 (or .def_46 .def_48)))
(let ((.def_407 (and .def_404 .def_406)))
(let ((.def_408 (or b.counter.3__AT0 .def_407)))
(let ((.def_401 (or .def_46 b.counter.2__AT0)))
(let ((.def_400 (or .def_43 .def_48)))
(let ((.def_402 (and .def_400 .def_401)))
(let ((.def_51 (not b.counter.3__AT0)))
(let ((.def_403 (or .def_51 .def_402)))
(let ((.def_409 (and .def_403 .def_408)))
(let ((.def_397 (and .def_77 .def_396)))
(let ((.def_392 (not b.EVENT.0__AT1)))
(let ((.def_390 (not b.EVENT.1__AT1)))
(let ((.def_393 (or .def_390 .def_392)))
(let ((.def_9 (not b.counter.0__AT1)))
(let ((.def_6 (not b.counter.1__AT1)))
(let ((.def_383 (or .def_6 .def_9)))
(let ((.def_387 (or b.counter.3__AT1 .def_383)))
(let ((.def_384 (or b.counter.2__AT1 .def_383)))
(let ((.def_4 (not b.counter.2__AT1)))
(let ((.def_382 (or .def_4 .def_9)))
(let ((.def_385 (and .def_382 .def_384)))
(let ((.def_14 (not b.counter.3__AT1)))
(let ((.def_386 (or .def_14 .def_385)))
(let ((.def_388 (and .def_386 .def_387)))
(let ((.def_394 (and .def_388 .def_393)))
(let ((.def_398 (and .def_394 .def_397)))
(let ((.def_377 (<= 0.0 b.delta__AT0)))
(let ((.def_64 (not b.EVENT.0__AT0)))
(let ((.def_62 (not b.EVENT.1__AT0)))
(let ((.def_211 (and .def_62 .def_64)))
(let ((.def_213 (not .def_211)))
(let ((.def_378 (or .def_213 .def_377)))
(let ((.def_379 (or b.EVENT.1__AT0 .def_378)))
(let ((.def_252 (= b.bool_atom__AT0 b.bool_atom__AT1)))
(let ((.def_247 (= b.counter.0__AT1 b.counter.0__AT0)))
(let ((.def_245 (= b.counter.1__AT1 b.counter.1__AT0)))
(let ((.def_243 (= b.counter.2__AT1 b.counter.2__AT0)))
(let ((.def_242 (= b.counter.3__AT1 b.counter.3__AT0)))
(let ((.def_244 (and .def_242 .def_243)))
(let ((.def_246 (and .def_244 .def_245)))
(let ((.def_248 (and .def_246 .def_247)))
(let ((.def_373 (and .def_248 .def_252)))
(let ((.def_374 (or .def_213 .def_373)))
(let ((.def_375 (or b.EVENT.1__AT0 .def_374)))
(let ((.def_362 (* (- 10.0) b.y__AT1)))
(let ((.def_85 (* b.delta__AT0 b.delta__AT0)))
(let ((.def_94 (* (- 49.0) .def_85)))
(let ((.def_365 (+ .def_94 .def_362)))
(let ((.def_83 (* b.speed_y__AT0 b.delta__AT0)))
(let ((.def_84 (* 10.0 .def_83)))
(let ((.def_366 (+ .def_84 .def_365)))
(let ((.def_109 (* 10.0 b.y__AT0)))
(let ((.def_367 (+ .def_109 .def_366)))
(let ((.def_368 (= .def_367 0.0 )))
(let ((.def_356 (* (- 5.0) b.speed_y__AT1)))
(let ((.def_128 (* (- 49.0) b.delta__AT0)))
(let ((.def_357 (+ .def_128 .def_356)))
(let ((.def_130 (* 5.0 b.speed_y__AT0)))
(let ((.def_358 (+ .def_130 .def_357)))
(let ((.def_359 (= .def_358 0.0 )))
(let ((.def_348 (* b.speed_x__AT0 b.delta__AT0)))
(let ((.def_352 (+ .def_349 .def_348)))
(let ((.def_353 (+ b.x__AT0 .def_352)))
(let ((.def_354 (= .def_353 0.0 )))
(let ((.def_237 (= b.speed_x__AT0 b.speed_x__AT1)))
(let ((.def_355 (and .def_237 .def_354)))
(let ((.def_360 (and .def_355 .def_359)))
(let ((.def_369 (and .def_360 .def_368)))
(let ((.def_370 (or .def_213 .def_369)))
(let ((.def_234 (= b.y__AT0 b.y__AT1)))
(let ((.def_231 (= b.x__AT0 b.x__AT1)))
(let ((.def_342 (and .def_231 .def_234)))
(let ((.def_343 (and .def_237 .def_342)))
(let ((.def_240 (= b.speed_y__AT0 b.speed_y__AT1)))
(let ((.def_344 (and .def_240 .def_343)))
(let ((.def_339 (= b.delta__AT0 0.0 )))
(let ((.def_340 (and .def_211 .def_339)))
(let ((.def_341 (not .def_340)))
(let ((.def_345 (or .def_341 .def_344)))
(let ((.def_346 (or b.EVENT.1__AT0 .def_345)))
(let ((.def_331 (and .def_237 .def_240)))
(let ((.def_332 (and .def_248 .def_331)))
(let ((.def_333 (or b.bool_atom__AT0 .def_332)))
(let ((.def_307 (or .def_9 b.counter.0__AT0)))
(let ((.def_306 (or b.counter.0__AT1 .def_45)))
(let ((.def_308 (and .def_306 .def_307)))
(let ((.def_309 (and .def_6 .def_308)))
(let ((.def_310 (or b.counter.1__AT0 .def_309)))
(let ((.def_305 (or b.counter.1__AT1 .def_43)))
(let ((.def_311 (and .def_305 .def_310)))
(let ((.def_322 (and .def_4 .def_311)))
(let ((.def_323 (or b.counter.2__AT0 .def_322)))
(let ((.def_317 (and .def_6 .def_45)))
(let ((.def_318 (or b.counter.1__AT0 .def_317)))
(let ((.def_319 (and .def_305 .def_318)))
(let ((.def_320 (and b.counter.2__AT1 .def_319)))
(let ((.def_321 (or .def_48 .def_320)))
(let ((.def_324 (and .def_321 .def_323)))
(let ((.def_325 (and b.counter.3__AT1 .def_324)))
(let ((.def_326 (or b.counter.3__AT0 .def_325)))
(let ((.def_312 (and b.counter.2__AT1 .def_311)))
(let ((.def_313 (or b.counter.2__AT0 .def_312)))
(let ((.def_301 (or b.counter.1__AT1 b.counter.1__AT0)))
(let ((.def_299 (and .def_6 b.counter.0__AT1)))
(let ((.def_300 (or .def_43 .def_299)))
(let ((.def_302 (and .def_300 .def_301)))
(let ((.def_303 (and .def_4 .def_302)))
(let ((.def_304 (or .def_48 .def_303)))
(let ((.def_314 (and .def_304 .def_313)))
(let ((.def_315 (and .def_14 .def_314)))
(let ((.def_316 (or .def_51 .def_315)))
(let ((.def_327 (and .def_316 .def_326)))
(let ((.def_290 (* b.speed_y__AT0 b.speed_y__AT0)))
(let ((.def_289 (* b.speed_x__AT0 b.speed_x__AT0)))
(let ((.def_291 (+ .def_289 .def_290)))
(let ((.def_271 (* (- 1.0) b.speed_loss__AT0)))
(let ((.def_272 (+ 1.0 .def_271)))
(let ((.def_288 (* .def_272 .def_272)))
(let ((.def_292 (* .def_288 .def_291)))
(let ((.def_294 (* (- 1.0) .def_292)))
(let ((.def_285 (* b.speed_y__AT1 b.speed_y__AT1)))
(let ((.def_295 (+ .def_285 .def_294)))
(let ((.def_283 (* b.speed_x__AT1 b.speed_x__AT1)))
(let ((.def_296 (+ .def_283 .def_295)))
(let ((.def_297 (= .def_296 0.0 )))
(let ((.def_276 (* b.speed_y__AT0 .def_272)))
(let ((.def_259 (* (- 2.0) b.x__AT0)))
(let ((.def_260 (* (- 1.0) .def_259)))
(let ((.def_273 (* .def_260 .def_272)))
(let ((.def_274 (* b.speed_x__AT0 .def_273)))
(let ((.def_279 (+ .def_274 .def_276)))
(let ((.def_268 (* (- 2.0) b.x__AT1)))
(let ((.def_269 (* (- 1.0) .def_268)))
(let ((.def_270 (* b.speed_x__AT1 .def_269)))
(let ((.def_280 (+ .def_270 .def_279)))
(let ((.def_281 (+ b.speed_y__AT1 .def_280)))
(let ((.def_282 (= .def_281 0.0 )))
(let ((.def_298 (and .def_282 .def_297)))
(let ((.def_328 (and .def_298 .def_327)))
(let ((.def_267 (not b.bool_atom__AT0)))
(let ((.def_329 (or .def_267 .def_328)))
(let ((.def_261 (* b.speed_x__AT0 .def_260)))
(let ((.def_262 (+ b.speed_y__AT0 .def_261)))
(let ((.def_263 (<= 0.0 .def_262)))
(let ((.def_264 (not .def_263)))
(let ((.def_68 (* (- 1.0) b.x__AT0)))
(let ((.def_69 (* b.x__AT0 .def_68)))
(let ((.def_257 (= b.y__AT0 .def_69)))
(let ((.def_265 (and .def_257 .def_264)))
(let ((.def_266 (= b.bool_atom__AT0 .def_265)))
(let ((.def_330 (and .def_266 .def_329)))
(let ((.def_334 (and .def_330 .def_333)))
(let ((.def_335 (and .def_231 .def_334)))
(let ((.def_336 (and .def_234 .def_335)))
(let ((.def_337 (or .def_211 .def_336)))
(let ((.def_338 (or b.EVENT.1__AT0 .def_337)))
(let ((.def_347 (and .def_338 .def_346)))
(let ((.def_371 (and .def_347 .def_370)))
(let ((.def_218 (= b.time__AT0 b.time__AT1)))
(let ((.def_232 (and .def_218 .def_231)))
(let ((.def_235 (and .def_232 .def_234)))
(let ((.def_238 (and .def_235 .def_237)))
(let ((.def_241 (and .def_238 .def_240)))
(let ((.def_249 (and .def_241 .def_248)))
(let ((.def_253 (and .def_249 .def_252)))
(let ((.def_254 (or .def_62 .def_253)))
(let ((.def_221 (* (- 1.0) b.time__AT1)))
(let ((.def_224 (+ b.delta__AT0 .def_221)))
(let ((.def_225 (+ b.time__AT0 .def_224)))
(let ((.def_226 (= .def_225 0.0 )))
(let ((.def_227 (or .def_213 .def_226)))
(let ((.def_228 (or b.EVENT.1__AT0 .def_227)))
(let ((.def_219 (or .def_211 .def_218)))
(let ((.def_220 (or b.EVENT.1__AT0 .def_219)))
(let ((.def_229 (and .def_220 .def_228)))
(let ((.def_255 (and .def_229 .def_254)))
(let ((.def_215 (= .def_213 b.event_is_timed__AT1)))
(let ((.def_212 (= b.event_is_timed__AT0 .def_211)))
(let ((.def_216 (and .def_212 .def_215)))
(let ((.def_256 (and .def_216 .def_255)))
(let ((.def_372 (and .def_256 .def_371)))
(let ((.def_376 (and .def_372 .def_375)))
(let ((.def_380 (and .def_376 .def_379)))
(let ((.def_381 (and .def_62 .def_380)))
(let ((.def_399 (and .def_381 .def_398)))
(let ((.def_410 (and .def_399 .def_409)))
(let ((.def_86 (* (- 1.0) b.speed_x__AT0)))
(let ((.def_87 (* b.speed_x__AT0 .def_86)))
(let ((.def_88 (* (- 1.0) .def_87)))
(let ((.def_119 (* 2.0 .def_88)))
(let ((.def_181 (* (- 1.0) .def_119)))
(let ((.def_182 (* b.delta__AT0 .def_181)))
(let ((.def_183 (* (- 5.0) .def_182)))
(let ((.def_101 (* b.speed_x__AT0 .def_68)))
(let ((.def_126 (* (- 5.0) .def_101)))
(let ((.def_188 (+ .def_126 .def_183)))
(let ((.def_96 (* b.x__AT0 .def_86)))
(let ((.def_124 (* (- 5.0) .def_96)))
(let ((.def_189 (+ .def_124 .def_188)))
(let ((.def_190 (+ .def_128 .def_189)))
(let ((.def_191 (+ .def_130 .def_190)))
(let ((.def_194 (<= 0.0 .def_191)))
(let ((.def_201 (not .def_194)))
(let ((.def_102 (* (- 1.0) .def_101)))
(let ((.def_97 (* (- 1.0) .def_96)))
(let ((.def_138 (+ .def_97 .def_102)))
(let ((.def_139 (+ b.speed_y__AT0 .def_138)))
(let ((.def_140 (<= 0.0 .def_139)))
(let ((.def_202 (or .def_140 .def_201)))
(let ((.def_192 (<= .def_191 0.0 )))
(let ((.def_154 (<= .def_139 0.0 )))
(let ((.def_155 (not .def_154)))
(let ((.def_200 (or .def_155 .def_192)))
(let ((.def_203 (and .def_200 .def_202)))
(let ((.def_172 (<= .def_87 (- (/ 49 10)))))
(let ((.def_204 (or .def_172 .def_203)))
(let ((.def_196 (not .def_192)))
(let ((.def_197 (or .def_154 .def_196)))
(let ((.def_141 (not .def_140)))
(let ((.def_195 (or .def_141 .def_194)))
(let ((.def_198 (and .def_195 .def_197)))
(let ((.def_177 (<= (- (/ 49 10)) .def_87)))
(let ((.def_199 (or .def_177 .def_198)))
(let ((.def_205 (and .def_199 .def_204)))
(let ((.def_193 (and .def_154 .def_192)))
(let ((.def_206 (and .def_193 .def_205)))
(let ((.def_120 (* b.delta__AT0 .def_119)))
(let ((.def_122 (* 5.0 .def_120)))
(let ((.def_132 (+ .def_126 .def_122)))
(let ((.def_133 (+ .def_124 .def_132)))
(let ((.def_134 (+ .def_128 .def_133)))
(let ((.def_135 (+ .def_130 .def_134)))
(let ((.def_152 (<= .def_135 0.0 )))
(let ((.def_153 (not .def_152)))
(let ((.def_175 (or .def_153 .def_154)))
(let ((.def_136 (<= 0.0 .def_135)))
(let ((.def_174 (or .def_136 .def_141)))
(let ((.def_176 (and .def_174 .def_175)))
(let ((.def_178 (or .def_176 .def_177)))
(let ((.def_137 (not .def_136)))
(let ((.def_168 (or .def_137 .def_140)))
(let ((.def_167 (or .def_152 .def_155)))
(let ((.def_169 (and .def_167 .def_168)))
(let ((.def_173 (or .def_169 .def_172)))
(let ((.def_179 (and .def_173 .def_178)))
(let ((.def_166 (and .def_136 .def_140)))
(let ((.def_180 (and .def_166 .def_179)))
(let ((.def_207 (or .def_180 .def_206)))
(let ((.def_103 (* b.delta__AT0 .def_102)))
(let ((.def_104 (* 10.0 .def_103)))
(let ((.def_98 (* b.delta__AT0 .def_97)))
(let ((.def_99 (* 10.0 .def_98)))
(let ((.def_111 (+ .def_99 .def_104)))
(let ((.def_89 (* .def_85 .def_88)))
(let ((.def_90 (* 10.0 .def_89)))
(let ((.def_112 (+ .def_90 .def_111)))
(let ((.def_113 (+ .def_94 .def_112)))
(let ((.def_114 (+ .def_84 .def_113)))
(let ((.def_107 (* (- 10.0) .def_69)))
(let ((.def_115 (+ .def_107 .def_114)))
(let ((.def_116 (+ .def_109 .def_115)))
(let ((.def_146 (<= .def_116 0.0 )))
(let ((.def_160 (not .def_146)))
(let ((.def_144 (<= b.y__AT0 .def_69)))
(let ((.def_161 (or .def_144 .def_160)))
(let ((.def_70 (<= .def_69 b.y__AT0)))
(let ((.def_158 (not .def_70)))
(let ((.def_117 (<= 0.0 .def_116)))
(let ((.def_159 (or .def_117 .def_158)))
(let ((.def_162 (and .def_159 .def_161)))
(let ((.def_156 (or .def_153 .def_155)))
(let ((.def_157 (not .def_156)))
(let ((.def_163 (or .def_157 .def_162)))
(let ((.def_148 (not .def_117)))
(let ((.def_149 (or .def_70 .def_148)))
(let ((.def_145 (not .def_144)))
(let ((.def_147 (or .def_145 .def_146)))
(let ((.def_150 (and .def_147 .def_149)))
(let ((.def_142 (or .def_137 .def_141)))
(let ((.def_143 (not .def_142)))
(let ((.def_151 (or .def_143 .def_150)))
(let ((.def_164 (and .def_151 .def_163)))
(let ((.def_118 (and .def_70 .def_117)))
(let ((.def_165 (and .def_118 .def_164)))
(let ((.def_208 (and .def_165 .def_207)))
(let ((.def_209 (and .def_77 .def_208)))
(let ((.def_78 (and .def_70 .def_77)))
(let ((.def_65 (or .def_62 .def_64)))
(let ((.def_55 (or .def_43 .def_45)))
(let ((.def_59 (or b.counter.3__AT0 .def_55)))
(let ((.def_56 (or b.counter.2__AT0 .def_55)))
(let ((.def_54 (or .def_45 .def_48)))
(let ((.def_57 (and .def_54 .def_56)))
(let ((.def_58 (or .def_51 .def_57)))
(let ((.def_60 (and .def_58 .def_59)))
(let ((.def_66 (and .def_60 .def_65)))
(let ((.def_79 (and .def_66 .def_78)))
(let ((.def_49 (and .def_46 .def_48)))
(let ((.def_52 (and .def_49 .def_51)))
(let ((.def_40 (= b.speed_y__AT0 1.0 )))
(let ((.def_37 (= b.speed_x__AT0 1.0 )))
(let ((.def_33 (= b.y__AT0 10.0 )))
(let ((.def_29 (= b.x__AT0 0.0 )))
(let ((.def_25 (= b.time__AT0 0.0 )))
(let ((.def_27 (and .def_25 b.event_is_timed__AT0)))
(let ((.def_30 (and .def_27 .def_29)))
(let ((.def_34 (and .def_30 .def_33)))
(let ((.def_38 (and .def_34 .def_37)))
(let ((.def_41 (and .def_38 .def_40)))
(let ((.def_53 (and .def_41 .def_52)))
(let ((.def_80 (and .def_53 .def_79)))
(let ((.def_17 (or b.counter.1__AT1 .def_9)))
(let ((.def_18 (or b.counter.2__AT1 .def_17)))
(let ((.def_10 (and .def_6 .def_9)))
(let ((.def_16 (or .def_4 .def_10)))
(let ((.def_19 (and .def_16 .def_18)))
(let ((.def_20 (or b.counter.3__AT1 .def_19)))
(let ((.def_11 (or b.counter.2__AT1 .def_10)))
(let ((.def_7 (or .def_4 .def_6)))
(let ((.def_12 (and .def_7 .def_11)))
(let ((.def_15 (or .def_12 .def_14)))
(let ((.def_21 (and .def_15 .def_20)))
(let ((.def_22 (not .def_21)))
(let ((.def_81 (and .def_22 .def_80)))
(let ((.def_210 (and .def_81 .def_209)))
(let ((.def_411 (and .def_210 .def_410)))
(let ((.def_533 (and .def_411 .def_532)))
.def_533))))))))))))))))))))))))))))))))))))))))))))))))))))))))))))))))))))))))))))))))))))))))))))))))))))))))))))))))))))))))))))))))))))))))))))))))))))))))))))))))))))))))))))))))))))))))))))))))))))))))))))))))))))))))))))))))))))))))))))))))))))))))))))))))))))))))))))))))))))))))))))))))))))))))))))))))))))))))))))))))))))))))))))))))))))))))))))))))))))))))))))))))))))))))))))))))))))))))))))))))))))))))))))))))))))))))))))))))))))))))))))))
(check-sat)
(exit)
